15 375000000
125126 56358531
1330424 80874050
5500931 47987304
3029145 89596240
8284005 74660482
1410810 85894345
7050142 51353496
3399487 1498459
140294 36445204
1731285 16589862
9852504 44569231
1908322 0466933
891140 37788018
5166295 57118442
6176397 60716575